## Initialization

units real
dimension 3

atom_style full
bond_style harmonic
angle_style harmonic 
pair_style

boundary p p p

## System Definition

region box block -10 10 -10 10 -10 10

create_box 2 box &
bond/types 1 &
angle/types 1 &
extra/bond/per/atom 2 & 
extra/angle/per/atom 1 &
extra/special/per/atom 2