## Initialization ---------------------------------------------------

units real
dimension 3 
boundary p p p

atom_style      full
bond_style      harmonic
angle_style     harmonic
pair_style	   

## System Definition ------------------------------------------------



## Atom Information


## Simulation Settings
