## Initialization

units       real
dimension   3
atom_style  atomic
boundary    p p p

## System Definition

region      box block -5 5 -5 5 -5 5
create_box  2 box
